unknown
(model
; cardinality of BoundSet is 1
(declare-sort BoundSet 0)
; rep: @uc_BoundSet_0
; cardinality of UnboundSet is 1
(declare-sort UnboundSet 0)
(declare-fun groundTerm_2 () UnboundSet)
(define-fun IsProponentOfManMadeClimateChangeTheories ((BOUND_VARIABLE_409 BoundSet)) Bool true)
(define-fun IsArrogant ((BOUND_VARIABLE_409 BoundSet)) Bool true)
(define-fun IsZealous ((BOUND_VARIABLE_409 BoundSet)) Bool true)
(define-fun IsViewedAs ((BOUND_VARIABLE_421 BoundSet) (BOUND_VARIABLE_422 BoundSet)) Bool false)
(define-fun IsByProponentsOf ((BOUND_VARIABLE_421 BoundSet) (BOUND_VARIABLE_422 BoundSet)) Bool false)
)
sat
(model
; cardinality of BoundSet is 1
(declare-sort BoundSet 0)
; rep: @uc_BoundSet_0
; cardinality of UnboundSet is 1
(declare-sort UnboundSet 0)
(declare-fun groundTerm_4 () UnboundSet)
(define-fun IsProponentOfManMadeClimateChangeTheories ((BOUND_VARIABLE_438 BoundSet)) Bool true)
(define-fun IsArrogant ((BOUND_VARIABLE_438 BoundSet)) Bool true)
(define-fun IsZealous ((BOUND_VARIABLE_438 BoundSet)) Bool true)
(define-fun IsViewedAs ((BOUND_VARIABLE_446 BoundSet) (BOUND_VARIABLE_447 BoundSet)) Bool false)
(define-fun IsByProponentsOf ((BOUND_VARIABLE_446 BoundSet) (BOUND_VARIABLE_447 BoundSet)) Bool false)
)
